c Generated map
c Size: 8 * 8, weights in range: 1 to 10, walls: True, with ratio 0.1
c dim 3 of 10
c
p sp 64 94
c graph contains 64 nodes and 94 arcs
c
a 1 9 3
a 9 1 3
a 1 2 6
a 2 1 6
a 2 10 7
a 10 2 7
a 2 3 3
a 3 2 3
a 3 11 6
a 11 3 6
a 3 4 6
a 4 3 6
a 4 12 8
a 12 4 8
a 4 5 9
a 5 4 9
a 5 13 4
a 13 5 4
a 5 6 9
a 6 5 9
a 6 14 7
a 14 6 7
a 6 7 2
a 7 6 2
a 7 15 8
a 15 7 8
a 7 8 2
a 8 7 2
a 8 16 6
a 16 8 6
a 9 17 5
a 17 9 5
a 9 10 5
a 10 9 5
a 10 18 7
a 18 10 7
a 10 11 2
a 11 10 2
a 11 19 8
a 19 11 8
a 11 12 9
a 12 11 9
a 12 20 2
a 20 12 2
a 12 13 4
a 13 12 4
a 13 21 9
a 21 13 9
a 13 14 2
a 14 13 2
a 14 15 10
a 15 14 10
a 15 23 3
a 23 15 3
a 15 16 6
a 16 15 6
a 16 24 4
a 24 16 4
a 17 25 3
a 25 17 3
a 17 18 5
a 18 17 5
a 18 26 6
a 26 18 6
a 18 19 8
a 19 18 8
a 19 27 6
a 27 19 6
a 19 20 3
a 20 19 3
a 20 28 7
a 28 20 7
a 20 21 2
a 21 20 2
a 21 29 6
a 29 21 6
a 23 31 10
a 31 23 10
a 23 24 1
a 24 23 1
a 24 32 8
a 32 24 8
a 25 33 9
a 33 25 9
a 25 26 7
a 26 25 7
a 26 34 10
a 34 26 10
a 26 27 8
a 27 26 8
a 27 35 9
a 35 27 9
a 27 28 7
a 28 27 7
a 28 36 6
a 36 28 6
a 28 29 8
a 29 28 8
a 29 37 10
a 37 29 10
a 29 30 3
a 30 29 3
a 30 38 4
a 38 30 4
a 30 31 4
a 31 30 4
a 31 32 7
a 32 31 7
a 32 40 7
a 40 32 7
a 33 41 3
a 41 33 3
a 33 34 10
a 34 33 10
a 34 42 3
a 42 34 3
a 34 35 8
a 35 34 8
a 35 43 10
a 43 35 10
a 35 36 3
a 36 35 3
a 36 44 7
a 44 36 7
a 36 37 4
a 37 36 4
a 37 45 2
a 45 37 2
a 37 38 5
a 38 37 5
a 38 46 5
a 46 38 5
a 40 48 5
a 48 40 5
a 41 42 2
a 42 41 2
a 42 50 8
a 50 42 8
a 42 43 4
a 43 42 4
a 43 51 10
a 51 43 10
a 43 44 4
a 44 43 4
a 44 52 6
a 52 44 6
a 44 45 5
a 45 44 5
a 45 53 5
a 53 45 5
a 45 46 6
a 46 45 6
a 46 47 5
a 47 46 5
a 47 55 9
a 55 47 9
a 47 48 3
a 48 47 3
a 48 56 1
a 56 48 1
a 50 51 2
a 51 50 2
a 51 59 6
a 59 51 6
a 51 52 3
a 52 51 3
a 52 60 3
a 60 52 3
a 52 53 5
a 53 52 5
a 53 61 6
a 61 53 6
a 55 63 5
a 63 55 5
a 55 56 8
a 56 55 8
a 56 64 4
a 64 56 4
a 59 60 2
a 60 59 2
a 60 61 6
a 61 60 6
a 61 62 10
a 62 61 10
a 62 63 5
a 63 62 5
a 63 64 3
a 64 63 3
